Geographic Exponential Decay
40 269 108 90 295 87 211 24 65 78 213 47 304 49 142 77 247 251 208 290 112 56 163 36 165 103 274 172 300 126 311 237 253 91 258 195 57 128 106 84 109
p edge 320 1313
e 0 78 2.0
e 0 39 3.0
e 1 115 5.0
e 1 95 5.0
e 2 228 12.0
e 3 253 89.0
e 4 42 1.0
e 5 11 1.0
e 6 175 1.0
e 6 181 1.0
e 7 298 2.0
e 8 263 4.0
e 9 226 2.0
e 10 236 3.0
e 11 196 4.0
e 11 258 39.0
e 11 152 5.0
e 12 245 4.0
e 12 306 2.0
e 12 102 11.0
e 12 203 11.0
e 13 71 16.0
e 13 9 12.0
e 13 250 3.0
e 13 66 7.0
e 13 73 14.0
e 13 37 4.0
e 13 44 4.0
e 14 173 5.0
e 14 163 48.0
e 15 26 23.0
e 15 151 13.0
e 15 51 2.0
e 15 313 10.0
e 15 249 16.0
e 15 278 15.0
e 15 301 27.0
e 15 191 49.0
e 15 134 37.0
e 15 314 8.0
e 15 18 29.0
e 15 252 6.0
e 15 94 27.0
e 15 192 27.0
e 16 64 18.0
e 16 247 74.0
e 16 198 18.0
e 16 246 8.0
e 16 249 15.0
e 16 25 8.0
e 16 196 8.0
e 17 256 1.0
e 19 42 2.0
e 19 23 1.0
e 20 103 85.0
e 21 217 2.0
e 22 74 5.0
e 24 139 18.0
e 24 207 40.0
e 24 10 41.0
e 24 238 5.0
e 24 98 49.0
e 24 249 14.0
e 24 27 22.0
e 24 210 32.0
e 24 77 60.0
e 24 241 26.0
e 24 6 30.0
e 24 1 76.0
e 24 306 77.0
e 24 240 61.0
e 24 163 41.0
e 24 9 76.0
e 24 8 2.0
e 24 106 96.0
e 24 86 13.0
e 24 124 14.0
e 24 58 12.0
e 24 288 72.0
e 24 198 44.0
e 24 308 100.0
e 24 279 82.0
e 24 159 26.0
e 24 90 88.0
e 26 286 3.0
e 27 295 18.0
e 27 166 22.0
e 27 88 23.0
e 27 313 11.0
e 27 303 19.0
e 27 151 18.0
e 28 75 1.0
e 29 146 1.0
e 30 153 5.0
e 31 30 9.0
e 31 13 19.0
e 31 90 81.0
e 31 70 2.0
e 32 240 2.0
e 33 159 5.0
e 34 260 4.0
e 34 79 2.0
e 35 29 3.0
e 36 83 33.0
e 36 227 7.0
e 36 65 15.0
e 36 196 40.0
e 36 122 80.0
e 36 280 11.0
e 36 237 44.0
e 36 62 88.0
e 36 2 83.0
e 36 128 1.0
e 36 0 34.0
e 36 287 52.0
e 36 272 81.0
e 36 239 73.0
e 36 258 32.0
e 36 151 79.0
e 36 171 67.0
e 36 282 29.0
e 36 169 67.0
e 36 317 41.0
e 36 307 58.0
e 36 139 4.0
e 36 30 69.0
e 36 235 64.0
e 36 152 59.0
e 36 256 75.0
e 36 123 62.0
e 38 179 9.0
e 40 80 7.0
e 40 18 4.0
e 40 293 3.0
e 40 85 3.0
e 41 230 5.0
e 43 124 10.0
e 45 30 1.0
e 46 85 1.0
e 47 1 41.0
e 47 12 37.0
e 47 6 93.0
e 47 179 62.0
e 47 46 8.0
e 47 259 96.0
e 47 187 99.0
e 47 269 31.0
e 47 276 83.0
e 47 202 61.0
e 47 156 67.0
e 47 192 83.0
e 47 114 38.0
e 47 76 66.0
e 47 264 68.0
e 47 280 63.0
e 47 221 63.0
e 47 196 26.0
e 47 155 43.0
e 47 166 39.0
e 47 88 32.0
e 47 291 52.0
e 47 131 29.0
e 47 282 4.0
e 47 56 15.0
e 47 107 60.0
e 47 244 19.0
e 48 76 1.0
e 48 132 5.0
e 49 32 54.0
e 49 13 11.0
e 49 289 76.0
e 49 173 70.0
e 49 123 12.0
e 49 293 47.0
e 49 143 77.0
e 49 37 16.0
e 49 18 30.0
e 49 204 7.0
e 49 149 1.0
e 49 120 55.0
e 49 258 34.0
e 49 262 12.0
e 49 261 96.0
e 49 161 97.0
e 49 263 69.0
e 49 189 100.0
e 49 16 46.0
e 49 136 32.0
e 49 14 35.0
e 49 176 85.0
e 49 219 33.0
e 49 53 96.0
e 49 15 65.0
e 49 179 28.0
e 49 220 66.0
e 50 122 1.0
e 51 14 1.0
e 51 65 94.0
e 51 84 2.0
e 51 25 6.0
e 51 225 16.0
e 51 245 1.0
e 52 10 2.0
e 54 270 6.0
e 54 205 4.0
e 54 260 9.0
e 54 164 9.0
e 55 45 1.0
e 56 176 29.0
e 56 102 89.0
e 56 206 81.0
e 56 77 61.0
e 56 105 72.0
e 56 150 33.0
e 56 287 38.0
e 56 49 46.0
e 56 230 16.0
e 56 185 1.0
e 56 116 47.0
e 56 100 52.0
e 56 221 86.0
e 56 151 12.0
e 56 189 48.0
e 56 245 13.0
e 56 129 5.0
e 56 180 26.0
e 56 53 53.0
e 56 79 16.0
e 56 131 92.0
e 56 258 57.0
e 56 249 47.0
e 56 304 69.0
e 56 163 64.0
e 56 66 87.0
e 57 70 60.0
e 57 299 17.0
e 57 305 16.0
e 57 102 73.0
e 57 176 90.0
e 57 275 72.0
e 57 63 43.0
e 57 80 98.0
e 57 283 63.0
e 57 126 8.0
e 57 109 35.0
e 57 227 29.0
e 57 71 52.0
e 57 36 92.0
e 57 315 32.0
e 57 121 69.0
e 57 19 15.0
e 57 218 9.0
e 57 13 88.0
e 57 4 42.0
e 57 246 60.0
e 57 266 48.0
e 57 113 70.0
e 57 56 100.0
e 57 136 64.0
e 57 6 50.0
e 57 103 73.0
e 59 77 75.0
e 60 192 1.0
e 61 32 47.0
e 61 267 5.0
e 61 16 35.0
e 61 249 25.0
e 61 99 49.0
e 61 250 5.0
e 61 198 14.0
e 61 182 10.0
e 61 224 11.0
e 61 70 6.0
e 61 25 37.0
e 61 260 7.0
e 61 139 10.0
e 61 307 42.0
e 64 293 10.0
e 65 85 53.0
e 65 195 22.0
e 65 54 74.0
e 65 277 83.0
e 65 152 4.0
e 65 135 1.0
e 65 73 55.0
e 65 107 32.0
e 65 119 49.0
e 65 56 58.0
e 65 237 45.0
e 65 280 8.0
e 65 147 14.0
e 65 278 57.0
e 65 82 88.0
e 65 23 91.0
e 65 21 13.0
e 65 252 61.0
e 65 62 50.0
e 65 315 17.0
e 65 188 3.0
e 65 90 35.0
e 65 192 8.0
e 65 153 39.0
e 65 189 37.0
e 67 40 11.0
e 67 292 4.0
e 68 48 4.0
e 68 181 1.0
e 69 225 6.0
e 69 209 1.0
e 72 76 2.0
e 74 265 4.0
e 77 156 35.0
e 77 317 73.0
e 77 312 40.0
e 77 203 2.0
e 77 108 6.0
e 77 309 46.0
e 77 208 27.0
e 77 292 33.0
e 77 245 13.0
e 77 93 18.0
e 77 90 60.0
e 77 283 57.0
e 77 37 9.0
e 77 3 54.0
e 77 10 20.0
e 77 282 37.0
e 77 193 23.0
e 77 132 97.0
e 77 233 55.0
e 77 89 2.0
e 77 266 94.0
e 77 318 60.0
e 77 238 35.0
e 77 96 57.0
e 78 127 73.0
e 78 97 54.0
e 78 137 97.0
e 78 260 28.0
e 78 118 12.0
e 78 280 79.0
e 78 49 21.0
e 78 116 53.0
e 78 298 49.0
e 78 203 55.0
e 78 139 8.0
e 78 30 94.0
e 78 114 87.0
e 78 110 94.0
e 78 29 45.0
e 78 256 8.0
e 78 283 9.0
e 78 160 20.0
e 78 119 56.0
e 78 291 21.0
e 78 200 19.0
e 78 185 81.0
e 78 39 36.0
e 78 91 44.0
e 78 92 45.0
e 78 106 27.0
e 81 92 1.0
e 83 231 1.0
e 84 63 84.0
e 84 156 84.0
e 84 311 34.0
e 84 22 55.0
e 84 277 9.0
e 84 299 39.0
e 84 47 63.0
e 84 212 65.0
e 84 213 16.0
e 84 59 48.0
e 84 91 72.0
e 84 94 52.0
e 84 297 72.0
e 84 132 52.0
e 84 30 92.0
e 84 286 61.0
e 84 75 15.0
e 84 239 77.0
e 84 26 99.0
e 84 44 73.0
e 84 124 71.0
e 84 0 49.0
e 84 125 16.0
e 84 31 43.0
e 84 109 28.0
e 84 33 4.0
e 86 263 12.0
e 86 51 1.0
e 86 181 8.0
e 87 152 25.0
e 87 138 15.0
e 87 263 46.0
e 87 196 54.0
e 87 40 69.0
e 87 31 82.0
e 87 52 63.0
e 87 234 96.0
e 87 123 48.0
e 87 240 54.0
e 87 170 90.0
e 87 149 100.0
e 87 300 98.0
e 87 43 33.0
e 87 64 64.0
e 87 97 3.0
e 87 135 43.0
e 87 190 82.0
e 87 183 63.0
e 87 59 67.0
e 87 104 65.0
e 87 81 88.0
e 87 91 58.0
e 87 16 59.0
e 87 27 96.0
e 87 291 61.0
e 87 209 88.0
e 89 4 4.0
e 90 113 1.0
e 90 272 45.0
e 90 269 68.0
e 90 267 86.0
e 90 297 72.0
e 90 33 59.0
e 90 76 26.0
e 90 47 26.0
e 90 271 58.0
e 90 191 74.0
e 90 103 12.0
e 90 118 46.0
e 90 155 59.0
e 90 289 1.0
e 90 182 90.0
e 90 313 38.0
e 90 175 77.0
e 90 100 68.0
e 90 85 6.0
e 90 130 96.0
e 90 310 56.0
e 90 95 63.0
e 90 61 51.0
e 91 316 98.0
e 91 293 40.0
e 91 284 75.0
e 91 138 11.0
e 91 228 50.0
e 91 219 20.0
e 91 186 39.0
e 91 86 87.0
e 91 10 52.0
e 91 182 61.0
e 91 208 33.0
e 91 75 86.0
e 91 141 12.0
e 91 301 97.0
e 91 180 88.0
e 91 45 21.0
e 91 217 78.0
e 91 274 8.0
e 91 136 22.0
e 91 68 75.0
e 91 253 93.0
e 91 197 40.0
e 91 21 15.0
e 91 18 26.0
e 96 158 2.0
e 97 176 9.0
e 97 244 1.0
e 98 82 1.0
e 99 156 20.0
e 99 176 13.0
e 99 169 16.0
e 99 243 14.0
e 99 112 46.0
e 99 55 6.0
e 101 58 5.0
e 101 173 1.0
e 103 258 61.0
e 103 68 32.0
e 103 16 49.0
e 103 21 80.0
e 103 58 87.0
e 103 277 97.0
e 103 153 84.0
e 103 188 61.0
e 103 237 73.0
e 103 306 71.0
e 103 91 8.0
e 103 56 65.0
e 103 98 37.0
e 103 266 8.0
e 103 119 16.0
e 103 276 63.0
e 103 2 86.0
e 103 133 44.0
e 103 278 37.0
e 103 211 53.0
e 103 84 47.0
e 103 187 23.0
e 103 145 70.0
e 103 44 60.0
e 104 307 5.0
e 105 214 11.0
e 105 41 12.0
e 105 243 12.0
e 106 241 32.0
e 106 254 52.0
e 106 240 88.0
e 106 90 9.0
e 106 117 76.0
e 106 141 11.0
e 106 164 29.0
e 106 234 82.0
e 106 29 88.0
e 106 209 99.0
e 106 267 17.0
e 106 180 64.0
e 106 66 88.0
e 106 32 49.0
e 106 54 57.0
e 106 166 36.0
e 106 70 51.0
e 106 156 78.0
e 106 273 83.0
e 106 124 99.0
e 106 268 82.0
e 106 264 28.0
e 106 16 37.0
e 106 229 86.0
e 106 218 94.0
e 108 90 41.0
e 108 237 10.0
e 108 268 96.0
e 108 230 94.0
e 108 273 32.0
e 108 294 95.0
e 108 91 64.0
e 108 281 83.0
e 108 121 25.0
e 108 93 95.0
e 108 21 57.0
e 108 29 80.0
e 108 0 83.0
e 108 267 38.0
e 108 191 27.0
e 108 98 2.0
e 108 94 31.0
e 108 58 48.0
e 108 7 51.0
e 108 302 30.0
e 108 136 17.0
e 108 59 7.0
e 108 28 76.0
e 108 4 49.0
e 108 299 83.0
e 108 64 32.0
e 109 93 66.0
e 109 205 60.0
e 109 90 15.0
e 109 256 43.0
e 109 202 88.0
e 109 112 68.0
e 109 187 76.0
e 109 166 61.0
e 109 117 10.0
e 109 228 76.0
e 109 163 48.0
e 109 273 60.0
e 109 313 71.0
e 109 69 29.0
e 109 78 31.0
e 109 41 49.0
e 109 114 14.0
e 109 63 73.0
e 109 73 49.0
e 109 206 93.0
e 109 226 57.0
e 109 30 63.0
e 109 29 10.0
e 109 115 3.0
e 109 120 21.0
e 110 68 4.0
e 110 293 8.0
e 110 124 8.0
e 111 63 4.0
e 111 43 5.0
e 112 15 33.0
e 112 200 90.0
e 112 233 42.0
e 112 156 86.0
e 112 168 4.0
e 112 236 32.0
e 112 226 46.0
e 112 128 22.0
e 112 138 97.0
e 112 230 90.0
e 112 117 20.0
e 112 157 13.0
e 112 313 57.0
e 112 141 8.0
e 112 116 40.0
e 112 164 23.0
e 112 206 16.0
e 112 77 44.0
e 112 143 30.0
e 112 11 98.0
e 112 87 85.0
e 112 279 31.0
e 112 189 60.0
e 112 43 36.0
e 112 284 58.0
e 119 82 9.0
e 123 10 1.0
e 125 234 4.0
e 125 104 6.0
e 125 293 5.0
e 126 121 47.0
e 126 143 42.0
e 126 4 7.0
e 126 25 59.0
e 126 245 75.0
e 126 187 25.0
e 126 87 6.0
e 126 184 91.0
e 126 233 96.0
e 126 125 58.0
e 126 150 60.0
e 126 185 36.0
e 126 227 44.0
e 126 140 32.0
e 126 139 29.0
e 126 31 47.0
e 126 260 85.0
e 126 61 13.0
e 126 304 18.0
e 126 66 16.0
e 126 159 84.0
e 126 41 71.0
e 126 68 5.0
e 126 33 26.0
e 126 16 17.0
e 126 212 87.0
e 128 305 2.0
e 128 273 60.0
e 128 123 94.0
e 128 103 2.0
e 128 317 27.0
e 128 160 98.0
e 128 311 46.0
e 128 179 82.0
e 128 171 78.0
e 128 141 38.0
e 128 263 6.0
e 128 43 84.0
e 128 259 11.0
e 128 239 33.0
e 128 306 83.0
e 128 143 56.0
e 128 260 70.0
e 128 95 58.0
e 128 284 2.0
e 128 183 69.0
e 128 203 74.0
e 128 275 40.0
e 128 312 47.0
e 128 252 83.0
e 128 48 77.0
e 129 201 3.0
e 130 3 1.0
e 132 312 10.0
e 133 149 5.0
e 133 293 8.0
e 133 182 2.0
e 137 160 23.0
e 137 44 32.0
e 137 284 18.0
e 137 289 40.0
e 137 212 39.0
e 137 290 29.0
e 137 161 4.0
e 137 282 36.0
e 137 92 29.0
e 137 66 18.0
e 137 181 46.0
e 137 48 35.0
e 137 151 47.0
e 138 146 1.0
e 141 262 11.0
e 141 81 5.0
e 141 92 9.0
e 142 273 16.0
e 142 247 72.0
e 142 17 25.0
e 142 19 58.0
e 142 169 64.0
e 142 8 23.0
e 142 184 27.0
e 142 154 6.0
e 142 226 59.0
e 142 140 97.0
e 142 197 29.0
e 142 201 89.0
e 142 178 61.0
e 142 27 80.0
e 142 274 17.0
e 142 253 74.0
e 142 13 54.0
e 142 53 39.0
e 142 143 75.0
e 142 3 58.0
e 142 22 81.0
e 142 66 7.0
e 142 137 62.0
e 142 292 96.0
e 142 275 74.0
e 142 20 97.0
e 142 167 64.0
e 144 90 21.0
e 148 293 1.0
e 148 20 1.0
e 157 183 4.0
e 157 68 1.0
e 157 248 11.0
e 160 8 23.0
e 160 74 15.0
e 160 98 6.0
e 160 235 19.0
e 162 237 6.0
e 162 171 10.0
e 162 93 18.0
e 162 133 22.0
e 162 117 24.0
e 162 199 24.0
e 162 108 63.0
e 163 250 80.0
e 163 142 96.0
e 163 65 18.0
e 163 25 92.0
e 163 19 65.0
e 163 61 81.0
e 163 197 59.0
e 163 29 70.0
e 163 137 13.0
e 163 303 39.0
e 163 15 52.0
e 163 66 36.0
e 163 42 16.0
e 163 269 84.0
e 163 196 47.0
e 163 132 19.0
e 163 179 85.0
e 163 73 49.0
e 163 307 43.0
e 163 91 100.0
e 163 28 83.0
e 163 134 73.0
e 163 262 62.0
e 165 21 20.0
e 165 158 10.0
e 165 285 81.0
e 165 292 92.0
e 165 309 16.0
e 165 178 88.0
e 165 101 87.0
e 165 271 63.0
e 165 116 38.0
e 165 297 41.0
e 165 281 25.0
e 165 24 58.0
e 165 110 31.0
e 165 157 18.0
e 165 45 83.0
e 165 31 3.0
e 165 90 94.0
e 165 253 90.0
e 165 262 42.0
e 165 19 82.0
e 165 183 56.0
e 165 92 80.0
e 165 156 45.0
e 165 179 85.0
e 165 151 1.0
e 165 188 33.0
e 165 256 64.0
e 168 69 4.0
e 171 44 5.0
e 172 280 64.0
e 172 75 27.0
e 172 312 21.0
e 172 49 21.0
e 172 58 11.0
e 172 107 32.0
e 172 44 12.0
e 172 87 24.0
e 172 244 100.0
e 172 276 20.0
e 172 171 53.0
e 172 251 13.0
e 172 81 95.0
e 172 34 34.0
e 172 156 66.0
e 172 123 88.0
e 172 262 2.0
e 172 38 99.0
e 172 310 90.0
e 172 83 92.0
e 172 300 5.0
e 172 290 34.0
e 172 216 27.0
e 172 210 92.0
e 172 94 72.0
e 172 103 36.0
e 172 185 75.0
e 174 2 1.0
e 175 11 14.0
e 175 26 18.0
e 175 24 78.0
e 175 299 9.0
e 175 150 3.0
e 177 107 3.0
e 185 85 30.0
e 185 160 49.0
e 185 315 19.0
e 185 5 1.0
e 185 114 48.0
e 185 195 6.0
e 185 61 39.0
e 185 17 14.0
e 185 88 21.0
e 185 164 42.0
e 190 263 8.0
e 190 34 18.0
e 190 191 14.0
e 190 278 12.0
e 190 127 14.0
e 190 235 14.0
e 194 5 1.0
e 195 91 64.0
e 195 31 93.0
e 195 233 46.0
e 195 105 90.0
e 195 32 77.0
e 195 49 24.0
e 195 7 86.0
e 195 137 86.0
e 195 36 26.0
e 195 251 24.0
e 195 267 22.0
e 195 18 5.0
e 195 232 79.0
e 195 234 9.0
e 195 66 42.0
e 195 255 36.0
e 195 257 10.0
e 195 153 4.0
e 195 146 54.0
e 195 38 3.0
e 195 20 78.0
e 195 3 95.0
e 195 178 72.0
e 195 106 5.0
e 195 202 45.0
e 199 27 1.0
e 200 141 20.0
e 200 262 12.0
e 200 113 17.0
e 200 202 14.0
e 200 108 41.0
e 207 12 9.0
e 207 208 55.0
e 207 74 11.0
e 208 188 89.0
e 208 92 61.0
e 208 193 80.0
e 208 249 46.0
e 208 72 36.0
e 208 76 43.0
e 208 106 11.0
e 208 2 32.0
e 208 217 66.0
e 208 162 39.0
e 208 169 95.0
e 208 250 99.0
e 208 135 59.0
e 208 31 45.0
e 208 68 27.0
e 208 305 29.0
e 208 153 99.0
e 208 155 84.0
e 208 230 86.0
e 208 197 19.0
e 208 283 24.0
e 208 74 76.0
e 208 301 22.0
e 208 168 75.0
e 209 171 23.0
e 209 8 6.0
e 209 314 16.0
e 209 85 6.0
e 210 191 3.0
e 210 242 3.0
e 211 234 51.0
e 211 32 14.0
e 211 242 60.0
e 211 301 2.0
e 211 17 71.0
e 211 164 23.0
e 211 212 95.0
e 211 166 75.0
e 211 298 52.0
e 211 302 13.0
e 211 20 74.0
e 211 311 12.0
e 211 157 41.0
e 211 36 8.0
e 211 264 71.0
e 211 202 93.0
e 211 285 85.0
e 211 227 14.0
e 211 294 51.0
e 211 48 85.0
e 211 154 20.0
e 211 243 97.0
e 211 197 20.0
e 211 282 67.0
e 211 155 80.0
e 211 60 94.0
e 213 54 21.0
e 213 229 72.0
e 213 57 24.0
e 213 46 25.0
e 213 101 78.0
e 213 268 61.0
e 213 77 57.0
e 213 226 7.0
e 213 295 44.0
e 213 214 67.0
e 213 135 92.0
e 213 58 85.0
e 213 7 60.0
e 213 296 20.0
e 213 56 66.0
e 213 266 99.0
e 213 10 66.0
e 213 124 41.0
e 213 59 50.0
e 213 5 10.0
e 213 260 54.0
e 213 182 66.0
e 213 112 9.0
e 213 40 49.0
e 213 100 90.0
e 213 102 88.0
e 215 147 1.0
e 222 132 10.0
e 222 195 1.0
e 223 276 8.0
e 223 207 5.0
e 223 93 12.0
e 223 181 7.0
e 224 83 2.0
e 228 207 11.0
e 235 236 3.0
e 237 4 18.0
e 237 123 4.0
e 237 218 66.0
e 237 303 43.0
e 237 145 40.0
e 237 238 42.0
e 237 34 39.0
e 237 228 74.0
e 237 95 58.0
e 237 149 68.0
e 237 93 82.0
e 237 147 86.0
e 237 59 96.0
e 237 0 13.0
e 237 259 86.0
e 237 23 37.0
e 237 85 90.0
e 237 248 54.0
e 237 86 49.0
e 237 203 30.0
e 237 167 15.0
e 237 192 18.0
e 238 263 4.0
e 239 190 21.0
e 247 97 67.0
e 247 78 2.0
e 247 53 95.0
e 247 116 88.0
e 247 238 46.0
e 247 17 82.0
e 247 125 16.0
e 247 263 65.0
e 247 4 94.0
e 247 86 68.0
e 247 232 66.0
e 247 290 78.0
e 247 95 11.0
e 247 138 44.0
e 247 256 99.0
e 247 32 18.0
e 247 270 44.0
e 247 261 71.0
e 247 36 8.0
e 247 180 4.0
e 247 147 78.0
e 247 243 47.0
e 247 140 26.0
e 247 123 26.0
e 247 209 39.0
e 250 310 16.0
e 250 247 29.0
e 250 54 24.0
e 251 105 60.0
e 251 206 22.0
e 251 198 73.0
e 251 67 90.0
e 251 104 36.0
e 251 202 17.0
e 251 146 89.0
e 251 154 47.0
e 251 157 73.0
e 251 245 3.0
e 251 229 86.0
e 251 295 33.0
e 251 220 15.0
e 251 0 91.0
e 251 149 70.0
e 251 103 60.0
e 251 203 14.0
e 251 166 100.0
e 251 3 76.0
e 251 50 11.0
e 251 301 27.0
e 251 147 73.0
e 251 33 82.0
e 251 258 48.0
e 251 252 50.0
e 253 122 64.0
e 253 109 64.0
e 253 153 59.0
e 253 43 17.0
e 253 304 16.0
e 253 72 15.0
e 253 264 16.0
e 253 107 19.0
e 253 152 7.0
e 253 121 17.0
e 253 274 76.0
e 253 265 22.0
e 253 123 58.0
e 253 266 95.0
e 253 222 89.0
e 253 261 39.0
e 253 291 10.0
e 253 278 74.0
e 253 180 77.0
e 253 267 13.0
e 253 92 28.0
e 253 285 13.0
e 253 275 2.0
e 254 284 4.0
e 254 118 12.0
e 254 273 38.0
e 255 192 18.0
e 255 244 24.0
e 255 56 53.0
e 255 299 5.0
e 255 107 16.0
e 255 155 17.0
e 257 304 43.0
e 258 193 27.0
e 258 187 7.0
e 258 236 48.0
e 258 64 60.0
e 258 21 67.0
e 258 121 13.0
e 258 153 21.0
e 258 289 29.0
e 258 306 94.0
e 258 22 70.0
e 258 157 11.0
e 258 217 65.0
e 258 204 45.0
e 258 179 54.0
e 258 150 90.0
e 258 120 75.0
e 258 24 68.0
e 258 93 42.0
e 258 158 9.0
e 258 78 40.0
e 258 86 58.0
e 269 227 54.0
e 269 257 16.0
e 269 9 44.0
e 269 261 86.0
e 269 17 50.0
e 269 149 18.0
e 269 249 66.0
e 269 317 99.0
e 269 63 53.0
e 269 316 70.0
e 269 160 95.0
e 269 25 78.0
e 269 203 92.0
e 269 96 31.0
e 269 289 32.0
e 269 293 33.0
e 269 308 98.0
e 269 277 16.0
e 269 91 32.0
e 269 292 36.0
e 269 224 67.0
e 269 283 26.0
e 269 61 77.0
e 269 19 57.0
e 273 275 34.0
e 273 186 31.0
e 273 224 29.0
e 273 136 23.0
e 273 167 14.0
e 273 238 49.0
e 273 308 30.0
e 273 220 23.0
e 274 240 22.0
e 274 72 8.0
e 274 63 69.0
e 274 254 64.0
e 274 278 28.0
e 274 115 73.0
e 274 163 24.0
e 274 191 62.0
e 274 317 51.0
e 274 75 15.0
e 274 256 55.0
e 274 246 18.0
e 274 94 95.0
e 274 245 16.0
e 274 17 41.0
e 274 20 83.0
e 274 98 5.0
e 274 64 43.0
e 274 9 24.0
e 274 143 69.0
e 274 276 77.0
e 274 67 31.0
e 274 54 56.0
e 274 242 82.0
e 279 25 6.0
e 279 2 10.0
e 282 208 36.0
e 282 209 12.0
e 282 258 2.0
e 282 27 14.0
e 282 212 36.0
e 282 86 10.0
e 282 11 4.0
e 282 183 4.0
e 282 202 15.0
e 287 233 5.0
e 287 226 14.0
e 287 83 10.0
e 287 301 20.0
e 287 152 23.0
e 290 261 31.0
e 290 223 23.0
e 290 246 59.0
e 290 86 10.0
e 290 112 62.0
e 290 87 55.0
e 290 191 22.0
e 290 248 94.0
e 290 33 40.0
e 290 59 63.0
e 290 44 91.0
e 290 135 89.0
e 290 6 52.0
e 290 221 50.0
e 290 257 24.0
e 290 60 54.0
e 290 126 76.0
e 290 253 54.0
e 290 155 77.0
e 290 91 67.0
e 290 293 50.0
e 290 53 31.0
e 290 71 74.0
e 290 254 29.0
e 295 149 7.0
e 295 15 12.0
e 295 235 92.0
e 295 292 72.0
e 295 47 79.0
e 295 55 55.0
e 295 208 58.0
e 295 246 11.0
e 295 311 38.0
e 295 261 29.0
e 295 46 10.0
e 295 94 85.0
e 295 285 21.0
e 295 276 75.0
e 295 7 37.0
e 295 240 19.0
e 295 90 38.0
e 295 187 47.0
e 295 264 55.0
e 295 148 45.0
e 295 158 30.0
e 295 19 84.0
e 295 45 40.0
e 295 39 82.0
e 297 264 5.0
e 300 228 5.0
e 300 178 63.0
e 300 237 93.0
e 300 113 62.0
e 300 161 60.0
e 300 3 11.0
e 300 114 94.0
e 300 269 35.0
e 300 285 11.0
e 300 167 13.0
e 300 56 74.0
e 300 33 8.0
e 300 61 30.0
e 300 8 93.0
e 300 160 10.0
e 300 229 1.0
e 300 117 22.0
e 300 234 39.0
e 300 88 20.0
e 300 224 74.0
e 300 246 3.0
e 300 212 69.0
e 300 239 45.0
e 300 151 20.0
e 300 287 40.0
e 302 252 8.0
e 302 13 7.0
e 304 207 24.0
e 304 103 51.0
e 304 132 36.0
e 304 54 75.0
e 304 258 45.0
e 304 83 32.0
e 304 296 8.0
e 304 62 44.0
e 304 116 73.0
e 304 171 81.0
e 304 229 6.0
e 304 45 88.0
e 304 237 5.0
e 304 108 11.0
e 304 50 71.0
e 304 245 81.0
e 304 185 56.0
e 304 27 19.0
e 304 142 67.0
e 304 303 45.0
e 304 35 8.0
e 304 186 74.0
e 304 292 44.0
e 310 126 62.0
e 310 62 3.0
e 310 301 24.0
e 310 20 22.0
e 311 199 25.0
e 311 288 30.0
e 311 189 3.0
e 311 307 91.0
e 311 182 63.0
e 311 9 73.0
e 311 294 11.0
e 311 119 8.0
e 311 257 35.0
e 311 97 58.0
e 311 314 86.0
e 311 0 31.0
e 311 282 43.0
e 311 114 78.0
e 311 89 69.0
e 311 258 82.0
e 311 147 77.0
e 311 133 14.0
e 311 94 88.0
e 311 166 26.0
e 311 250 73.0
e 311 96 4.0
e 311 24 29.0
e 314 5 3.0
e 314 43 6.0
e 314 275 9.0
e 314 255 16.0
e 315 251 87.0
e 315 211 27.0
e 315 300 63.0
e 315 8 10.0
e 315 138 28.0
e 315 285 17.0
e 315 88 48.0
e 315 246 20.0
e 315 176 20.0
e 315 311 84.0
e 315 55 6.0
e 319 195 43.0
e 319 13 19.0
e 319 34 9.0
e 319 217 3.0
